(set-logic ALL)
(declare-fun distances () (Array Int (Array Int Int)))
(declare-fun s () (Array Int Int))
(declare-fun x_0_1 () Int)
(declare-fun x_0_2 () Int)
(declare-fun x_0_3 () Int)
(declare-fun x_0_4 () Int)
(declare-fun x_1_1 () Int)
(declare-fun x_1_2 () Int)
(declare-fun x_1_3 () Int)
(declare-fun x_1_4 () Int)
(declare-fun x_2_1 () Int)
(declare-fun x_2_2 () Int)
(declare-fun x_2_3 () Int)
(declare-fun x_2_4 () Int)
(declare-fun x_3_1 () Int)
(declare-fun x_3_2 () Int)
(declare-fun x_3_3 () Int)
(declare-fun x_3_4 () Int)
(declare-fun x_4_1 () Int)
(declare-fun x_4_2 () Int)
(declare-fun x_4_3 () Int)
(declare-fun x_4_4 () Int)
(declare-fun x_5_1 () Int)
(declare-fun x_5_2 () Int)
(declare-fun x_5_3 () Int)
(declare-fun x_5_4 () Int)
(declare-fun x_0_5 () Int)
(declare-fun x_0_0 () Int)
(declare-fun x_1_5 () Int)
(declare-fun x_1_0 () Int)
(declare-fun x_2_5 () Int)
(declare-fun x_2_0 () Int)
(declare-fun x_3_5 () Int)
(declare-fun x_3_0 () Int)
(declare-fun x_4_5 () Int)
(declare-fun x_4_0 () Int)
(declare-fun x_5_5 () Int)
(declare-fun x_5_0 () Int)
(declare-fun load_0 () Int)
(declare-fun load_1 () Int)
(declare-fun load_2 () Int)
(declare-fun load_3 () Int)
(declare-fun load_4 () Int)
(declare-fun load_5 () Int)
(declare-fun y_0 () Int)
(declare-fun y_1 () Int)
(declare-fun y_2 () Int)
(declare-fun y_3 () Int)
(declare-fun y_4 () Int)
(declare-fun y_5 () Int)
(declare-fun max_distance () Int)
(assert (= (select (select distances 0) 0) 0))
(assert (= (select (select distances 0) 1) 199))
(assert (= (select (select distances 0) 2) 119))
(assert (= (select (select distances 0) 3) 28))
(assert (= (select (select distances 0) 4) 179))
(assert (= (select (select distances 0) 5) 77))
(assert (= (select (select distances 0) 6) 145))
(assert (= (select (select distances 0) 7) 61))
(assert (= (select (select distances 0) 8) 123))
(assert (= (select (select distances 0) 9) 87))
(assert (= (select (select distances 1) 0) 199))
(assert (= (select (select distances 1) 1) 0))
(assert (= (select (select distances 1) 2) 81))
(assert (= (select (select distances 1) 3) 206))
(assert (= (select (select distances 1) 4) 38))
(assert (= (select (select distances 1) 5) 122))
(assert (= (select (select distances 1) 6) 55))
(assert (= (select (select distances 1) 7) 138))
(assert (= (select (select distances 1) 8) 76))
(assert (= (select (select distances 1) 9) 113))
(assert (= (select (select distances 2) 0) 119))
(assert (= (select (select distances 2) 1) 81))
(assert (= (select (select distances 2) 2) 0))
(assert (= (select (select distances 2) 3) 126))
(assert (= (select (select distances 2) 4) 69))
(assert (= (select (select distances 2) 5) 121))
(assert (= (select (select distances 2) 6) 26))
(assert (= (select (select distances 2) 7) 117))
(assert (= (select (select distances 2) 8) 91))
(assert (= (select (select distances 2) 9) 32))
(assert (= (select (select distances 3) 0) 28))
(assert (= (select (select distances 3) 1) 206))
(assert (= (select (select distances 3) 2) 126))
(assert (= (select (select distances 3) 3) 0))
(assert (= (select (select distances 3) 4) 186))
(assert (= (select (select distances 3) 5) 84))
(assert (= (select (select distances 3) 6) 152))
(assert (= (select (select distances 3) 7) 68))
(assert (= (select (select distances 3) 8) 130))
(assert (= (select (select distances 3) 9) 94))
(assert (= (select (select distances 4) 0) 169))
(assert (= (select (select distances 4) 1) 38))
(assert (= (select (select distances 4) 2) 79))
(assert (= (select (select distances 4) 3) 176))
(assert (= (select (select distances 4) 4) 0))
(assert (= (select (select distances 4) 5) 92))
(assert (= (select (select distances 4) 6) 58))
(assert (= (select (select distances 4) 7) 108))
(assert (= (select (select distances 4) 8) 46))
(assert (= (select (select distances 4) 9) 98))
(assert (= (select (select distances 5) 0) 77))
(assert (= (select (select distances 5) 1) 122))
(assert (= (select (select distances 5) 2) 121))
(assert (= (select (select distances 5) 3) 84))
(assert (= (select (select distances 5) 4) 102))
(assert (= (select (select distances 5) 5) 0))
(assert (= (select (select distances 5) 6) 100))
(assert (= (select (select distances 5) 7) 16))
(assert (= (select (select distances 5) 8) 46))
(assert (= (select (select distances 5) 9) 96))
(assert (= (select (select distances 6) 0) 145))
(assert (= (select (select distances 6) 1) 55))
(assert (= (select (select distances 6) 2) 26))
(assert (= (select (select distances 6) 3) 152))
(assert (= (select (select distances 6) 4) 58))
(assert (= (select (select distances 6) 5) 100))
(assert (= (select (select distances 6) 6) 0))
(assert (= (select (select distances 6) 7) 91))
(assert (= (select (select distances 6) 8) 70))
(assert (= (select (select distances 6) 9) 58))
(assert (= (select (select distances 7) 0) 61))
(assert (= (select (select distances 7) 1) 138))
(assert (= (select (select distances 7) 2) 113))
(assert (= (select (select distances 7) 3) 68))
(assert (= (select (select distances 7) 4) 118))
(assert (= (select (select distances 7) 5) 16))
(assert (= (select (select distances 7) 6) 91))
(assert (= (select (select distances 7) 7) 0))
(assert (= (select (select distances 7) 8) 62))
(assert (= (select (select distances 7) 9) 87))
(assert (= (select (select distances 8) 0) 123))
(assert (= (select (select distances 8) 1) 76))
(assert (= (select (select distances 8) 2) 91))
(assert (= (select (select distances 8) 3) 130))
(assert (= (select (select distances 8) 4) 56))
(assert (= (select (select distances 8) 5) 46))
(assert (= (select (select distances 8) 6) 70))
(assert (= (select (select distances 8) 7) 62))
(assert (= (select (select distances 8) 8) 0))
(assert (= (select (select distances 8) 9) 66))
(assert (= (select (select distances 9) 0) 87))
(assert (= (select (select distances 9) 1) 113))
(assert (= (select (select distances 9) 2) 32))
(assert (= (select (select distances 9) 3) 94))
(assert (= (select (select distances 9) 4) 94))
(assert (= (select (select distances 9) 5) 96))
(assert (= (select (select distances 9) 6) 58))
(assert (= (select (select distances 9) 7) 87))
(assert (= (select (select distances 9) 8) 66))
(assert (= (select (select distances 9) 9) 0))
(assert (= (select s 0) 11))
(assert (= (select s 1) 11))
(assert (= (select s 2) 23))
(assert (= (select s 3) 16))
(assert (= (select s 4) 2))
(assert (= (select s 5) 1))
(assert (= (select s 6) 24))
(assert (= (select s 7) 14))
(assert (= (select s 8) 20))
(assert (= (select s 9) 0))
(assert (and (>= x_0_1 0) (<= x_0_1 9)))
(assert (and (>= x_0_2 0) (<= x_0_2 9)))
(assert (and (>= x_0_3 0) (<= x_0_3 9)))
(assert (and (>= x_0_4 0) (<= x_0_4 9)))
(assert (and (>= x_1_1 0) (<= x_1_1 9)))
(assert (and (>= x_1_2 0) (<= x_1_2 9)))
(assert (and (>= x_1_3 0) (<= x_1_3 9)))
(assert (and (>= x_1_4 0) (<= x_1_4 9)))
(assert (and (>= x_2_1 0) (<= x_2_1 9)))
(assert (and (>= x_2_2 0) (<= x_2_2 9)))
(assert (and (>= x_2_3 0) (<= x_2_3 9)))
(assert (and (>= x_2_4 0) (<= x_2_4 9)))
(assert (and (>= x_3_1 0) (<= x_3_1 9)))
(assert (and (>= x_3_2 0) (<= x_3_2 9)))
(assert (and (>= x_3_3 0) (<= x_3_3 9)))
(assert (and (>= x_3_4 0) (<= x_3_4 9)))
(assert (and (>= x_4_1 0) (<= x_4_1 9)))
(assert (and (>= x_4_2 0) (<= x_4_2 9)))
(assert (and (>= x_4_3 0) (<= x_4_3 9)))
(assert (and (>= x_4_4 0) (<= x_4_4 9)))
(assert (and (>= x_5_1 0) (<= x_5_1 9)))
(assert (and (>= x_5_2 0) (<= x_5_2 9)))
(assert (and (>= x_5_3 0) (<= x_5_3 9)))
(assert (and (>= x_5_4 0) (<= x_5_4 9)))
(assert (and (= x_0_0 9) (= x_0_5 9)))
(assert (and (= x_1_0 9) (= x_1_5 9)))
(assert (and (= x_2_0 9) (= x_2_5 9)))
(assert (and (= x_3_0 9) (= x_3_5 9)))
(assert (and (= x_4_0 9) (= x_4_5 9)))
(assert (and (= x_5_0 9) (= x_5_5 9)))
(assert (= (+ (ite (= x_0_1 0) 1 0)
      (ite (= x_0_2 0) 1 0)
      (ite (= x_0_3 0) 1 0)
      (ite (= x_0_4 0) 1 0)
      (ite (= x_0_5 0) 1 0)
      (ite (= x_1_1 0) 1 0)
      (ite (= x_1_2 0) 1 0)
      (ite (= x_1_3 0) 1 0)
      (ite (= x_1_4 0) 1 0)
      (ite (= x_1_5 0) 1 0)
      (ite (= x_2_1 0) 1 0)
      (ite (= x_2_2 0) 1 0)
      (ite (= x_2_3 0) 1 0)
      (ite (= x_2_4 0) 1 0)
      (ite (= x_2_5 0) 1 0)
      (ite (= x_3_1 0) 1 0)
      (ite (= x_3_2 0) 1 0)
      (ite (= x_3_3 0) 1 0)
      (ite (= x_3_4 0) 1 0)
      (ite (= x_3_5 0) 1 0)
      (ite (= x_4_1 0) 1 0)
      (ite (= x_4_2 0) 1 0)
      (ite (= x_4_3 0) 1 0)
      (ite (= x_4_4 0) 1 0)
      (ite (= x_4_5 0) 1 0)
      (ite (= x_5_1 0) 1 0)
      (ite (= x_5_2 0) 1 0)
      (ite (= x_5_3 0) 1 0)
      (ite (= x_5_4 0) 1 0)
      (ite (= x_5_5 0) 1 0))
   1))
(assert (= (+ (ite (= x_0_1 1) 1 0)
      (ite (= x_0_2 1) 1 0)
      (ite (= x_0_3 1) 1 0)
      (ite (= x_0_4 1) 1 0)
      (ite (= x_0_5 1) 1 0)
      (ite (= x_1_1 1) 1 0)
      (ite (= x_1_2 1) 1 0)
      (ite (= x_1_3 1) 1 0)
      (ite (= x_1_4 1) 1 0)
      (ite (= x_1_5 1) 1 0)
      (ite (= x_2_1 1) 1 0)
      (ite (= x_2_2 1) 1 0)
      (ite (= x_2_3 1) 1 0)
      (ite (= x_2_4 1) 1 0)
      (ite (= x_2_5 1) 1 0)
      (ite (= x_3_1 1) 1 0)
      (ite (= x_3_2 1) 1 0)
      (ite (= x_3_3 1) 1 0)
      (ite (= x_3_4 1) 1 0)
      (ite (= x_3_5 1) 1 0)
      (ite (= x_4_1 1) 1 0)
      (ite (= x_4_2 1) 1 0)
      (ite (= x_4_3 1) 1 0)
      (ite (= x_4_4 1) 1 0)
      (ite (= x_4_5 1) 1 0)
      (ite (= x_5_1 1) 1 0)
      (ite (= x_5_2 1) 1 0)
      (ite (= x_5_3 1) 1 0)
      (ite (= x_5_4 1) 1 0)
      (ite (= x_5_5 1) 1 0))
   1))
(assert (= (+ (ite (= x_0_1 2) 1 0)
      (ite (= x_0_2 2) 1 0)
      (ite (= x_0_3 2) 1 0)
      (ite (= x_0_4 2) 1 0)
      (ite (= x_0_5 2) 1 0)
      (ite (= x_1_1 2) 1 0)
      (ite (= x_1_2 2) 1 0)
      (ite (= x_1_3 2) 1 0)
      (ite (= x_1_4 2) 1 0)
      (ite (= x_1_5 2) 1 0)
      (ite (= x_2_1 2) 1 0)
      (ite (= x_2_2 2) 1 0)
      (ite (= x_2_3 2) 1 0)
      (ite (= x_2_4 2) 1 0)
      (ite (= x_2_5 2) 1 0)
      (ite (= x_3_1 2) 1 0)
      (ite (= x_3_2 2) 1 0)
      (ite (= x_3_3 2) 1 0)
      (ite (= x_3_4 2) 1 0)
      (ite (= x_3_5 2) 1 0)
      (ite (= x_4_1 2) 1 0)
      (ite (= x_4_2 2) 1 0)
      (ite (= x_4_3 2) 1 0)
      (ite (= x_4_4 2) 1 0)
      (ite (= x_4_5 2) 1 0)
      (ite (= x_5_1 2) 1 0)
      (ite (= x_5_2 2) 1 0)
      (ite (= x_5_3 2) 1 0)
      (ite (= x_5_4 2) 1 0)
      (ite (= x_5_5 2) 1 0))
   1))
(assert (= (+ (ite (= x_0_1 3) 1 0)
      (ite (= x_0_2 3) 1 0)
      (ite (= x_0_3 3) 1 0)
      (ite (= x_0_4 3) 1 0)
      (ite (= x_0_5 3) 1 0)
      (ite (= x_1_1 3) 1 0)
      (ite (= x_1_2 3) 1 0)
      (ite (= x_1_3 3) 1 0)
      (ite (= x_1_4 3) 1 0)
      (ite (= x_1_5 3) 1 0)
      (ite (= x_2_1 3) 1 0)
      (ite (= x_2_2 3) 1 0)
      (ite (= x_2_3 3) 1 0)
      (ite (= x_2_4 3) 1 0)
      (ite (= x_2_5 3) 1 0)
      (ite (= x_3_1 3) 1 0)
      (ite (= x_3_2 3) 1 0)
      (ite (= x_3_3 3) 1 0)
      (ite (= x_3_4 3) 1 0)
      (ite (= x_3_5 3) 1 0)
      (ite (= x_4_1 3) 1 0)
      (ite (= x_4_2 3) 1 0)
      (ite (= x_4_3 3) 1 0)
      (ite (= x_4_4 3) 1 0)
      (ite (= x_4_5 3) 1 0)
      (ite (= x_5_1 3) 1 0)
      (ite (= x_5_2 3) 1 0)
      (ite (= x_5_3 3) 1 0)
      (ite (= x_5_4 3) 1 0)
      (ite (= x_5_5 3) 1 0))
   1))
(assert (= (+ (ite (= x_0_1 4) 1 0)
      (ite (= x_0_2 4) 1 0)
      (ite (= x_0_3 4) 1 0)
      (ite (= x_0_4 4) 1 0)
      (ite (= x_0_5 4) 1 0)
      (ite (= x_1_1 4) 1 0)
      (ite (= x_1_2 4) 1 0)
      (ite (= x_1_3 4) 1 0)
      (ite (= x_1_4 4) 1 0)
      (ite (= x_1_5 4) 1 0)
      (ite (= x_2_1 4) 1 0)
      (ite (= x_2_2 4) 1 0)
      (ite (= x_2_3 4) 1 0)
      (ite (= x_2_4 4) 1 0)
      (ite (= x_2_5 4) 1 0)
      (ite (= x_3_1 4) 1 0)
      (ite (= x_3_2 4) 1 0)
      (ite (= x_3_3 4) 1 0)
      (ite (= x_3_4 4) 1 0)
      (ite (= x_3_5 4) 1 0)
      (ite (= x_4_1 4) 1 0)
      (ite (= x_4_2 4) 1 0)
      (ite (= x_4_3 4) 1 0)
      (ite (= x_4_4 4) 1 0)
      (ite (= x_4_5 4) 1 0)
      (ite (= x_5_1 4) 1 0)
      (ite (= x_5_2 4) 1 0)
      (ite (= x_5_3 4) 1 0)
      (ite (= x_5_4 4) 1 0)
      (ite (= x_5_5 4) 1 0))
   1))
(assert (= (+ (ite (= x_0_1 5) 1 0)
      (ite (= x_0_2 5) 1 0)
      (ite (= x_0_3 5) 1 0)
      (ite (= x_0_4 5) 1 0)
      (ite (= x_0_5 5) 1 0)
      (ite (= x_1_1 5) 1 0)
      (ite (= x_1_2 5) 1 0)
      (ite (= x_1_3 5) 1 0)
      (ite (= x_1_4 5) 1 0)
      (ite (= x_1_5 5) 1 0)
      (ite (= x_2_1 5) 1 0)
      (ite (= x_2_2 5) 1 0)
      (ite (= x_2_3 5) 1 0)
      (ite (= x_2_4 5) 1 0)
      (ite (= x_2_5 5) 1 0)
      (ite (= x_3_1 5) 1 0)
      (ite (= x_3_2 5) 1 0)
      (ite (= x_3_3 5) 1 0)
      (ite (= x_3_4 5) 1 0)
      (ite (= x_3_5 5) 1 0)
      (ite (= x_4_1 5) 1 0)
      (ite (= x_4_2 5) 1 0)
      (ite (= x_4_3 5) 1 0)
      (ite (= x_4_4 5) 1 0)
      (ite (= x_4_5 5) 1 0)
      (ite (= x_5_1 5) 1 0)
      (ite (= x_5_2 5) 1 0)
      (ite (= x_5_3 5) 1 0)
      (ite (= x_5_4 5) 1 0)
      (ite (= x_5_5 5) 1 0))
   1))
(assert (= (+ (ite (= x_0_1 6) 1 0)
      (ite (= x_0_2 6) 1 0)
      (ite (= x_0_3 6) 1 0)
      (ite (= x_0_4 6) 1 0)
      (ite (= x_0_5 6) 1 0)
      (ite (= x_1_1 6) 1 0)
      (ite (= x_1_2 6) 1 0)
      (ite (= x_1_3 6) 1 0)
      (ite (= x_1_4 6) 1 0)
      (ite (= x_1_5 6) 1 0)
      (ite (= x_2_1 6) 1 0)
      (ite (= x_2_2 6) 1 0)
      (ite (= x_2_3 6) 1 0)
      (ite (= x_2_4 6) 1 0)
      (ite (= x_2_5 6) 1 0)
      (ite (= x_3_1 6) 1 0)
      (ite (= x_3_2 6) 1 0)
      (ite (= x_3_3 6) 1 0)
      (ite (= x_3_4 6) 1 0)
      (ite (= x_3_5 6) 1 0)
      (ite (= x_4_1 6) 1 0)
      (ite (= x_4_2 6) 1 0)
      (ite (= x_4_3 6) 1 0)
      (ite (= x_4_4 6) 1 0)
      (ite (= x_4_5 6) 1 0)
      (ite (= x_5_1 6) 1 0)
      (ite (= x_5_2 6) 1 0)
      (ite (= x_5_3 6) 1 0)
      (ite (= x_5_4 6) 1 0)
      (ite (= x_5_5 6) 1 0))
   1))
(assert (= (+ (ite (= x_0_1 7) 1 0)
      (ite (= x_0_2 7) 1 0)
      (ite (= x_0_3 7) 1 0)
      (ite (= x_0_4 7) 1 0)
      (ite (= x_0_5 7) 1 0)
      (ite (= x_1_1 7) 1 0)
      (ite (= x_1_2 7) 1 0)
      (ite (= x_1_3 7) 1 0)
      (ite (= x_1_4 7) 1 0)
      (ite (= x_1_5 7) 1 0)
      (ite (= x_2_1 7) 1 0)
      (ite (= x_2_2 7) 1 0)
      (ite (= x_2_3 7) 1 0)
      (ite (= x_2_4 7) 1 0)
      (ite (= x_2_5 7) 1 0)
      (ite (= x_3_1 7) 1 0)
      (ite (= x_3_2 7) 1 0)
      (ite (= x_3_3 7) 1 0)
      (ite (= x_3_4 7) 1 0)
      (ite (= x_3_5 7) 1 0)
      (ite (= x_4_1 7) 1 0)
      (ite (= x_4_2 7) 1 0)
      (ite (= x_4_3 7) 1 0)
      (ite (= x_4_4 7) 1 0)
      (ite (= x_4_5 7) 1 0)
      (ite (= x_5_1 7) 1 0)
      (ite (= x_5_2 7) 1 0)
      (ite (= x_5_3 7) 1 0)
      (ite (= x_5_4 7) 1 0)
      (ite (= x_5_5 7) 1 0))
   1))
(assert (= (+ (ite (= x_0_1 8) 1 0)
      (ite (= x_0_2 8) 1 0)
      (ite (= x_0_3 8) 1 0)
      (ite (= x_0_4 8) 1 0)
      (ite (= x_0_5 8) 1 0)
      (ite (= x_1_1 8) 1 0)
      (ite (= x_1_2 8) 1 0)
      (ite (= x_1_3 8) 1 0)
      (ite (= x_1_4 8) 1 0)
      (ite (= x_1_5 8) 1 0)
      (ite (= x_2_1 8) 1 0)
      (ite (= x_2_2 8) 1 0)
      (ite (= x_2_3 8) 1 0)
      (ite (= x_2_4 8) 1 0)
      (ite (= x_2_5 8) 1 0)
      (ite (= x_3_1 8) 1 0)
      (ite (= x_3_2 8) 1 0)
      (ite (= x_3_3 8) 1 0)
      (ite (= x_3_4 8) 1 0)
      (ite (= x_3_5 8) 1 0)
      (ite (= x_4_1 8) 1 0)
      (ite (= x_4_2 8) 1 0)
      (ite (= x_4_3 8) 1 0)
      (ite (= x_4_4 8) 1 0)
      (ite (= x_4_5 8) 1 0)
      (ite (= x_5_1 8) 1 0)
      (ite (= x_5_2 8) 1 0)
      (ite (= x_5_3 8) 1 0)
      (ite (= x_5_4 8) 1 0)
      (ite (= x_5_5 8) 1 0))
   1))
(assert (= load_0
   (+ (select s x_0_1) (select s x_0_2) (select s x_0_3) (select s x_0_4))))
(assert (<= load_0 190))
(assert (= load_1
   (+ (select s x_1_1) (select s x_1_2) (select s x_1_3) (select s x_1_4))))
(assert (<= load_1 185))
(assert (= load_2
   (+ (select s x_2_1) (select s x_2_2) (select s x_2_3) (select s x_2_4))))
(assert (<= load_2 185))
(assert (= load_3
   (+ (select s x_3_1) (select s x_3_2) (select s x_3_3) (select s x_3_4))))
(assert (<= load_3 190))
(assert (= load_4
   (+ (select s x_4_1) (select s x_4_2) (select s x_4_3) (select s x_4_4))))
(assert (<= load_4 195))
(assert (= load_5
   (+ (select s x_5_1) (select s x_5_2) (select s x_5_3) (select s x_5_4))))
(assert (<= load_5 185))
(assert (and (<= 1 load_0) (>= 97 load_0)))
(assert (and (<= 1 load_1) (>= 97 load_1)))
(assert (and (<= 1 load_2) (>= 97 load_2)))
(assert (and (<= 1 load_3) (>= 97 load_3)))
(assert (and (<= 1 load_4) (>= 97 load_4)))
(assert (and (<= 1 load_5) (>= 97 load_5)))
(assert (=> (= x_0_1 9) (= x_0_2 9)))
(assert (=> (= x_0_2 9) (= x_0_3 9)))
(assert (=> (= x_0_3 9) (= x_0_4 9)))
(assert (=> (= x_0_4 9) (= x_0_5 9)))
(assert (=> (= x_1_1 9) (= x_1_2 9)))
(assert (=> (= x_1_2 9) (= x_1_3 9)))
(assert (=> (= x_1_3 9) (= x_1_4 9)))
(assert (=> (= x_1_4 9) (= x_1_5 9)))
(assert (=> (= x_2_1 9) (= x_2_2 9)))
(assert (=> (= x_2_2 9) (= x_2_3 9)))
(assert (=> (= x_2_3 9) (= x_2_4 9)))
(assert (=> (= x_2_4 9) (= x_2_5 9)))
(assert (=> (= x_3_1 9) (= x_3_2 9)))
(assert (=> (= x_3_2 9) (= x_3_3 9)))
(assert (=> (= x_3_3 9) (= x_3_4 9)))
(assert (=> (= x_3_4 9) (= x_3_5 9)))
(assert (=> (= x_4_1 9) (= x_4_2 9)))
(assert (=> (= x_4_2 9) (= x_4_3 9)))
(assert (=> (= x_4_3 9) (= x_4_4 9)))
(assert (=> (= x_4_4 9) (= x_4_5 9)))
(assert (=> (= x_5_1 9) (= x_5_2 9)))
(assert (=> (= x_5_2 9) (= x_5_3 9)))
(assert (=> (= x_5_3 9) (= x_5_4 9)))
(assert (=> (= x_5_4 9) (= x_5_5 9)))
(assert (=> false
    (<= (ite (distinct x_0_1 9) x_0_1 (- 1))
        (ite (distinct x_0_1 9) x_0_1 (- 1)))))
(assert (=> false
    (<= (ite (distinct x_0_1 9) x_0_1 (- 1))
        (ite (distinct x_0_1 9) x_0_1 (- 1)))))
(assert (=> true
    (<= (ite (distinct x_0_1 9) x_0_1 (- 1))
        (ite (distinct x_0_1 9) x_0_1 (- 1)))))
(assert (=> false
    (<= (ite (distinct x_0_1 9) x_0_1 (- 1))
        (ite (distinct x_0_1 9) x_0_1 (- 1)))))
(assert (=> false
    (<= (ite (distinct x_0_1 9) x_0_1 (- 1))
        (ite (distinct x_0_1 9) x_0_1 (- 1)))))
(assert (=> true
    (<= (ite (distinct x_1_1 9) x_1_1 (- 1))
        (ite (distinct x_1_1 9) x_1_1 (- 1)))))
(assert (=> false
    (<= (ite (distinct x_1_1 9) x_1_1 (- 1))
        (ite (distinct x_1_1 9) x_1_1 (- 1)))))
(assert (=> false
    (<= (ite (distinct x_1_1 9) x_1_1 (- 1))
        (ite (distinct x_1_1 9) x_1_1 (- 1)))))
(assert (=> true
    (<= (ite (distinct x_1_1 9) x_1_1 (- 1))
        (ite (distinct x_1_1 9) x_1_1 (- 1)))))
(assert (=> false
    (<= (ite (distinct x_2_1 9) x_2_1 (- 1))
        (ite (distinct x_2_1 9) x_2_1 (- 1)))))
(assert (=> false
    (<= (ite (distinct x_2_1 9) x_2_1 (- 1))
        (ite (distinct x_2_1 9) x_2_1 (- 1)))))
(assert (=> true
    (<= (ite (distinct x_2_1 9) x_2_1 (- 1))
        (ite (distinct x_2_1 9) x_2_1 (- 1)))))
(assert (=> false
    (<= (ite (distinct x_3_1 9) x_3_1 (- 1))
        (ite (distinct x_3_1 9) x_3_1 (- 1)))))
(assert (=> false
    (<= (ite (distinct x_3_1 9) x_3_1 (- 1))
        (ite (distinct x_3_1 9) x_3_1 (- 1)))))
(assert (=> false
    (<= (ite (distinct x_4_1 9) x_4_1 (- 1))
        (ite (distinct x_4_1 9) x_4_1 (- 1)))))
(assert (=> false (<= load_0 load_1)))
(assert (=> false (<= load_0 load_2)))
(assert (=> true (<= load_0 load_3)))
(assert (=> true (<= load_0 load_4)))
(assert (=> false (<= load_0 load_5)))
(assert (=> true (<= load_1 load_2)))
(assert (=> true (<= load_1 load_3)))
(assert (=> true (<= load_1 load_4)))
(assert (=> true (<= load_1 load_5)))
(assert (=> true (<= load_2 load_3)))
(assert (=> true (<= load_2 load_4)))
(assert (=> true (<= load_2 load_5)))
(assert (=> true (<= load_3 load_4)))
(assert (=> false (<= load_3 load_5)))
(assert (=> false (<= load_4 load_5)))
(assert (= y_0
   (+ (select (select distances x_0_0) x_0_1)
      (select (select distances x_0_1) x_0_2)
      (select (select distances x_0_2) x_0_3)
      (select (select distances x_0_3) x_0_4)
      (select (select distances x_0_4) x_0_5))))
(assert (= y_1
   (+ (select (select distances x_1_0) x_1_1)
      (select (select distances x_1_1) x_1_2)
      (select (select distances x_1_2) x_1_3)
      (select (select distances x_1_3) x_1_4)
      (select (select distances x_1_4) x_1_5))))
(assert (= y_2
   (+ (select (select distances x_2_0) x_2_1)
      (select (select distances x_2_1) x_2_2)
      (select (select distances x_2_2) x_2_3)
      (select (select distances x_2_3) x_2_4)
      (select (select distances x_2_4) x_2_5))))
(assert (= y_3
   (+ (select (select distances x_3_0) x_3_1)
      (select (select distances x_3_1) x_3_2)
      (select (select distances x_3_2) x_3_3)
      (select (select distances x_3_3) x_3_4)
      (select (select distances x_3_4) x_3_5))))
(assert (= y_4
   (+ (select (select distances x_4_0) x_4_1)
      (select (select distances x_4_1) x_4_2)
      (select (select distances x_4_2) x_4_3)
      (select (select distances x_4_3) x_4_4)
      (select (select distances x_4_4) x_4_5))))
(assert (= y_5
   (+ (select (select distances x_5_0) x_5_1)
      (select (select distances x_5_1) x_5_2)
      (select (select distances x_5_2) x_5_3)
      (select (select distances x_5_3) x_5_4)
      (select (select distances x_5_4) x_5_5))))
(assert (and (<= 64 y_0) (>= 1175 y_0)))
(assert (and (<= 64 y_1) (>= 1175 y_1)))
(assert (and (<= 64 y_2) (>= 1175 y_2)))
(assert (and (<= 64 y_3) (>= 1175 y_3)))
(assert (and (<= 64 y_4) (>= 1175 y_4)))
(assert (and (<= 64 y_5) (>= 1175 y_5)))
(assert (let ((a!1 (ite (> y_2 (ite (> y_1 y_0) y_1 y_0)) y_2 (ite (> y_1 y_0) y_1 y_0))))
(let ((a!2 (ite (> y_4 (ite (> y_3 a!1) y_3 a!1)) y_4 (ite (> y_3 a!1) y_3 a!1))))
  (= max_distance (ite (> y_5 a!2) y_5 a!2)))))
(assert (<= 226 max_distance))

(assert (<= max_distance 226))
(assert (>= max_distance 226))
(check-sat)
(get-value (x_0_0))
(get-value (x_0_1))
(get-value (x_0_2))
(get-value (x_0_3))
(get-value (x_0_4))
(get-value (x_0_5))
(get-value (x_1_0))
(get-value (x_1_1))
(get-value (x_1_2))
(get-value (x_1_3))
(get-value (x_1_4))
(get-value (x_1_5))
(get-value (x_2_0))
(get-value (x_2_1))
(get-value (x_2_2))
(get-value (x_2_3))
(get-value (x_2_4))
(get-value (x_2_5))
(get-value (x_3_0))
(get-value (x_3_1))
(get-value (x_3_2))
(get-value (x_3_3))
(get-value (x_3_4))
(get-value (x_3_5))
(get-value (x_4_0))
(get-value (x_4_1))
(get-value (x_4_2))
(get-value (x_4_3))
(get-value (x_4_4))
(get-value (x_4_5))
(get-value (x_5_0))
(get-value (x_5_1))
(get-value (x_5_2))
(get-value (x_5_3))
(get-value (x_5_4))
(get-value (x_5_5))